c --- [ banner ] -------------------------------------------------------------
c 
c CaDiCaL Radically Simplified CDCL SAT Solver
c Copyright (c) 2016-2021 A. Biere, M. Fleury, N. Froleyks
c 
c Version 1.5.2 ca9bff05c11bde5eae4912f9932871d1527e61d8
c g++ (GCC) 9.3.0 -Wall -Wextra -O3 -DNDEBUG
c Thu Jul 28 23:42:48 EDT 2022 Linux gra-login3 3.10.0-1160.66.1.el7.x86_64 x86_64
c 
c --- [ limit ] --------------------------------------------------------------
c 
c setting conflict limit to 200000 conflicts (due to '200000')
c 
c --- [ parsing input ] ------------------------------------------------------
c 
c reading DIMACS file from '23.cubes696.adj'
c opening file to read '23.cubes696.adj'
c found 'p cnf 5320 914899' header
c parsed 914899 clauses in 8.32 seconds process time
c closing file '23.cubes696.adj'
c after reading 637830028 bytes 608.3 MB
c 
c --- [ options ] ------------------------------------------------------------
c 
c all options are set to their default value
c 
c --- [ solving ] ------------------------------------------------------------
c 
c time measured in process time since initialization
c 
c  seconds   reductions  redundant  irredundant
c          MB    restarts       trail      variables
c           level   conflicts       glue        remaining
c 
c *  8.33 630  0 0   0    0    0  0% 0 914847 2076 39%
c {  8.83 657  0 0   0    0    0  0% 0 914847 2076 39%
c i  9.89 682 144 0   1   45   40 21% 5 914847 2043 38%
c i 10.12 685 141 0   1   46   40 21% 5 914847 2026 38%
c i 10.48 692 113 0   5   61   51 21% 5 914847 2013 38%
c i 11.18 697 53 0  22  162   79 19% 8 914847 2011 38%
c i 11.80 700 61 0  28  189  104 20% 12 914847 2010 38%
c i 12.49 703 61 0  56  296  188 23% 19 914847 2009 38%
c - 14.18 667 62 1  58  301  191 23% 20 95416 2009 38%
c i 14.28 634 60 1  64  324  207 23% 21 95416 2008 38%
c i 14.37 634 55 1  72  360  226 23% 20 95416 2007 38%
c i 14.40 634 55 1  73  370  233 23% 20 95416 2006 38%
c i 14.45 634 54 1  79  393  250 24% 21 95416 2005 38%
c i 14.47 634 54 1  80  395  251 24% 21 95416 2004 38%
c i 14.60 634 58 1  89  428  277 24% 23 95416 2003 38%
c i 14.62 634 58 1  91  436  282 24% 23 95416 2001 38%
c i 14.68 634 60 1  96  461  302 24% 25 95416 2000 38%
c i 14.69 634 60 1  97  462  302 24% 25 95416 1999 38%
c i 14.70 634 61 1  98  465  304 24% 24 95416 1998 38%
c i 14.71 634 61 1  99  471  308 24% 24 95416 1997 38%
c 
c  seconds   reductions  redundant   irredundant
c          MB    restarts       trail      variables
c           level   conflicts       glue        remaining
c 
c i 14.71 634 61 1 100  472  308 24% 24 95416 1996 38%
c i 14.71 634 61 1 100  473  308 24% 24 95416 1995 38%
c i 14.71 634 61 1 100  474  308 24% 24 95416 1994 37%
c i 14.71 634 61 1 101  475  308 24% 24 95416 1993 37%
c i 14.71 634 61 1 101  476  308 24% 24 95416 1992 37%
c i 14.71 634 61 1 101  477  308 24% 24 95416 1991 37%
c i 14.71 634 60 1 101  478  308 24% 24 95416 1990 37%
c i 14.71 634 60 1 101  479  308 24% 24 95416 1989 37%
c i 14.71 634 60 1 101  480  308 24% 24 95416 1988 37%
c i 14.71 634 60 1 101  481  308 24% 24 95416 1987 37%
c i 14.71 634 60 1 101  482  308 24% 24 95416 1986 37%
c i 14.75 634 60 1 101  485  310 24% 24 95416 1985 37%
c i 14.75 634 60 1 101  487  311 24% 24 95416 1984 37%
c i 15.14 634 66 1 122  596  407 25% 27 95416 1983 37%
c i 15.20 634 64 1 126  617  423 25% 27 95416 1982 37%
c i 15.28 634 61 1 126  762  537 26% 27 95416 1981 37%
c i 15.30 634 59 1 126  804  573 26% 27 95416 1980 37%
c i 15.32 634 57 1 126  874  632 26% 27 95416 1979 37%
c i 15.32 634 57 1 126  876  632 26% 27 95416 1978 37%
c i 15.32 634 57 1 126  888  640 26% 27 95416 1977 37%
c 
c  seconds   reductions  redundant   irredundant
c          MB    restarts       trail      variables
c           level   conflicts       glue        remaining
c 
c - 15.51 676 57 2 126  901  573 26% 27 95320 1977 37%
c i 15.52 676 56 2 126  906  577 26% 27 95320 1976 37%
c } 15.56 676 54 2 126 1002  642 27% 27 95320 1976 37%
c [ 15.56 676  0 2 126 1002  642  0% 0 95320 1976 37%
c O 15.56 676  2 2 126 1003  643 13% 2 95320 1976 37%
c i 15.65 676 19 2 126 1081  706 31% 15 95320 1975 37%
c i 15.70 676 20 2 126 1263  843 31% 17 95320 1974 37%
c i 15.73 676 20 2 126 1378  932 31% 17 95320 1973 37%
c i 15.75 676 20 2 126 1414  953 31% 17 95320 1972 37%
c i 15.75 676 20 2 126 1437  973 31% 17 95320 1971 37%
c i 15.76 676 20 2 126 1442  976 31% 17 95320 1970 37%
c i 15.78 676 20 2 126 1522 1038 30% 17 95320 1969 37%
c i 15.81 676 21 2 126 1633 1133 30% 17 95320 1968 37%
c i 15.81 676 21 2 126 1640 1138 30% 17 95320 1967 37%
c i 15.81 676 20 2 126 1656 1151 30% 17 95320 1966 37%
c - 15.97 675 20 3 126 1802  963 30% 17 95287 1966 37%
c ] 16.17 675 19 3 127 2376 1380 30% 17 95287 1966 37%
c 1 16.17 675 19 3 127 2376 1380 30% 17 95287 1966 37%
c 
c --- [ writing output ] -----------------------------------------------------
c 
c writing simplified CNF to DIMACS file 'simp/23.cubes696.adj.simp1'
c * 16.17 675 19 3 127 2376 1380 30% 17 95287 1966 37%
c opening file to write 'simp/23.cubes696.adj.simp1'
c writing 'p cnf 5320 95287' header
c closing file 'simp/23.cubes696.adj.simp1'
c after writing 47434704 bytes 45.2 MB
c wrote 95287 clauses in 0.39 seconds process time
c 
c --- [ writing extension ] --------------------------------------------------
c 
c writing extension stack to 'simp/23.cubes696.adj.ext1'
c opening file to write 'simp/23.cubes696.adj.ext1'
c closing file 'simp/23.cubes696.adj.ext1'
c after writing 7472 bytes 0.0 MB
c wrote 517 witnesses in 0.00 seconds process time
c 
c --- [ result ] -------------------------------------------------------------
c 
s SATISFIABLE
c 
c --- [ run-time profiling ] -------------------------------------------------
c 
c process time taken by individual solving procedures
c (percentage relative to process time for solving)
c 
c         8.32  106.08% parse
c         7.85  100.00% search
c         6.73   85.75% unstable
c         0.61    7.77% stable
c         0.51    6.48% lucky
c         0.00    0.00% simplify
c   =================================
c         7.85   47.39% solve
c 
c last line shows process time for solving
c (percentage relative to total process time)
c 
c --- [ statistics ] ---------------------------------------------------------
c 
c chronological:               520        21.89 %  of conflicts
c conflicts:                  2376       302.80    per second
c decisions:                 17525      2233.41    per second
c fixed:                       517         9.72 %  of all variables
c learned:                    2333        98.19 %  per conflict
c learned_lits:             499961       100.00 %  learned literals
c minimized:                     0         0.00 %  learned literals
c shrunken:                 242846        48.57 %  learned literals
c minishrunken:              81290        16.26 %  learned literals
c propagations:             336786         0.04 M  per second
c reduced:                     367        15.45 %  per conflict
c rephased:                      1      2376.00    interval
c restarts:                    127        18.71    interval
c stabilizing:                   1        57.83 %  of conflicts
c subsumed:                    536         0.03 %  of all clauses
c 
c seconds are measured in process time for solving
c 
c --- [ resources ] ----------------------------------------------------------
c 
c total process time since initialization:        16.56    seconds
c total real time since initialization:           16.72    seconds
c maximum resident set size of process:          717.09    MB
c 
c --- [ shutting down ] ------------------------------------------------------
c 
c exit 10
WARNING! DIMACS header mismatch: wrong number of variables.
============================[ Problem Statistics ]=============================
|                                                                             |
|  Number of variables:          5282                                         |
|  Number of clauses:           95287                                         |
|  Parse time:                   0.66 s                                       |
|  Simplification time:          0.01 s                                       |
|                                                                             |
============================[ Search Statistics ]====================================================
| Conflicts |          ORIGINAL         |          LEARNT          | Num Sols |      SUBGRAPHS      |
|           |    Vars  Clauses Literals |    Limit  Clauses Lit/Cl |          | Canonical Noncanon. |
=====================================================================================================
|       289 |    5196    95476 10347022 |     2000      282     20 |        0 |        85       189 |
|       525 |    5196    95562 10348369 |     2000      518     41 |        0 |       112       275 |
|       757 |    5187    95569 10348475 |     2000      741     51 |        0 |       126       282 |
|      1288 |    5184    95763 10351030 |     2000     1269     59 |        0 |       180       476 |
|      2352 |    5177    96321 10359021 |     3591     1340     18 |        0 |       301      1034 |
|      4013 |    5175    97223 10370572 |     3591     2999     34 |        0 |       537      1936 |
|      5527 |    5173    97598 10375158 |     4997     2722     28 |        0 |       558      2311 |
|      7662 |    5172    98025 10379594 |     4997     4856     49 |        0 |       604      2738 |
|     11027 |    5168    98828 10390964 |     6303     5726     51 |        0 |       756      3541 |
|     15541 |    5166    99498 10400799 |     7549     7088     54 |        0 |       845      4211 |
|     21692 |    5166    99883 10405533 |     9993     5085     26 |        0 |       935      4596 |
=====================================================================================================
Number of solutions   : 0
Canonical subgraphs   : 1005           (139 /sec)
          order  3    : 1              (142857 /sec)
          order  4    : 1              (500000 /sec)
          order  5    : 1              (250000 /sec)
          order  6    : 1              (52632 /sec)
          order  7    : 2              (10050 /sec)
          order  8    : 4              (3587 /sec)
          order  9    : 7              (1814 /sec)
          order 10    : 18             (1057 /sec)
          order 11    : 33             (660 /sec)
          order 12    : 107            (395 /sec)
          order 13    : 199            (263 /sec)
          order 14    : 175            (168 /sec)
          order 15    : 222            (120 /sec)
          order 16    : 120            (89 /sec)
          order 17    : 60             (63 /sec)
          order 18    : 44             (59 /sec)
          order 19    : 6              (49 /sec)
          order 20    : 4              (44 /sec)
          order 21    : 0              (-nan /sec)
Noncanonical subgraphs: 5216           (900 /sec)
          order  3    : 0              (-nan /sec)
          order  4    : 0              (-nan /sec)
          order  5    : 0              (-nan /sec)
          order  6    : 0              (-nan /sec)
          order  7    : 0              (-nan /sec)
          order  8    : 0              (-nan /sec)
          order  9    : 0              (-nan /sec)
          order 10    : 0              (-nan /sec)
          order 11    : 0              (-nan /sec)
          order 12    : 0              (-nan /sec)
          order 13    : 433            (10434 /sec)
          order 14    : 770            (5668 /sec)
          order 15    : 2827           (970 /sec)
          order 16    : 409            (672 /sec)
          order 17    : 732            (396 /sec)
          order 18    : 42             (249 /sec)
          order 19    : 0              (-nan /sec)
          order 20    : 0              (-nan /sec)
Canonicity checking   : 7.25233 s
Noncanonicity checking: 5.7951 s
Total canonicity time : 13.0474 s
database reductions   : 6
restarts              : 94
conflicts             : 26534          (1237 /sec)
decisions             : 66260          (0.00 % random) (3089 /sec)
propagations          : 2563436        (119524 /sec)
conflict literals     : 2072018        (53.07 % deleted)
actual reward         : 0.131285
Memory used           : 90.00 MB
CPU time              : 21.447 s

UNSATISFIABLE
